33714.0
0 0 0 0 1 0 1 1 1 0 1 1 0 0 0 0 0 0 0 0 0 1 0 1 1 0 0 1 1 0 




10 28 31 32 43 45 60 84 104 106 111 124 128 167 174 178 193 

1 5 30 35 42 48 55 71 72 86 91 97 110 113 123 183 192 195 199 
0 15 40 59 62 70 83 89 92 103 117 149 194 196 
36 37 41 44 46 54 57 63 64 73 78 82 95 109 115 119 120 135 137 154 158 159 

12 17 24 49 76 80 85 98 133 139 162 171 173 177 179 185 187 198 
56 65 69 93 96 102 114 121 127 132 140 142 143 144 155 184 









2 4 6 21 29 33 39 47 53 101 125 126 147 156 157 169 175 181 182 190 191 

13 16 22 66 74 75 77 81 87 134 136 145 152 160 164 166 168 170 180 
23 38 50 51 52 61 79 94 105 107 131 146 150 163 176 189 197 


3 7 8 18 19 20 25 26 34 58 88 108 112 141 148 161 165 188 
9 11 14 27 67 68 90 99 100 116 118 122 129 130 138 151 153 172 186 

